400, 31999400
160401, 837
160402, 227
160403, 368
160404, 592
160405, 942
160406, 927
160407, 391
160408, 118
160409, 283
160410, 940
160411, 956
160412, 339
160413, 201
160414, 74
160415, 397
160416, 591
160417, 767
160418, 978
160419, 530
160420, 356
160421, 100
160422, 486
160423, 451
160424, 174
160425, 635
160426, 540
160427, 741
160428, 988
160429, 634
160430, 940
160431, 357
160432, 780
160433, 750
160434, 541
160435, 762
160436, 994
160437, 976
160438, 371
160439, 983
160440, 193
160441, 26
160442, 956
160443, 726
160444, 183
160445, 570
160446, 189
160447, 805
160448, 997
160449, 454
160450, 929
160451, 636
160452, 149
160453, 54
160454, 138
160455, 949
160456, 538
160457, 421
160458, 229
160459, 330
160460, 826
160461, 72
160462, 962
160463, 738
160464, 159
160465, 68
160466, 706
160467, 917
160468, 329
160469, 955
160470, 711
160471, 650
160472, 389
160473, 496
160474, 390
160475, 151
160476, 73
160477, 350
160478, 543
160479, 1
160480, 252
160481, 12
160482, 683
160483, 471
160484, 938
160485, 867
160486, 213
160487, 587
160488, 606
160489, 853
160490, 538
160491, 200
160492, 126
160493, 496
160494, 144
160495, 676
160496, 42
160497, 889
160498, 858
160499, 999
160500, 933
160501, 913
160502, 697
160503, 762
160504, 138
160505, 763
160506, 732
160507, 209
160508, 679
160509, 299
160510, 129
160511, 929
160512, 229
160513, 280
160514, 945
160515, 18
160516, 797
160517, 930
160518, 79
160519, 477
160520, 388
160521, 700
160522, 985
160523, 174
160524, 471
160525, 26
160526, 373
160527, 258
160528, 887
160529, 252
160530, 453
160531, 826
160532, 142
160533, 305
160534, 915
160535, 190
160536, 128
160537, 100
160538, 869
160539, 315
160540, 795
160541, 890
160542, 65
160543, 853
160544, 606
160545, 473
160546, 57
160547, 156
160548, 277
160549, 691
160550, 88
160551, 947
160552, 74
160553, 344
160554, 763
160555, 276
160556, 877
160557, 351
160558, 585
160559, 524
160560, 717
160561, 157
160562, 163
160563, 85
160564, 805
160565, 539
160566, 44
160567, 926
160568, 711
160569, 596
160570, 776
160571, 981
160572, 803
160573, 452
160574, 177
160575, 757
160576, 353
160577, 545
160578, 709
160579, 695
160580, 434
160581, 342
160582, 353
160583, 21
160584, 18
160585, 99
160586, 769
160587, 898
160588, 17
160589, 309
160590, 220
160591, 323
160592, 60
160593, 364
160594, 276
160595, 528
160596, 168
160597, 343
160598, 275
160599, 963
160600, 152
160601, 105
160602, 120
160603, 87
160604, 65
160605, 967
160606, 15
160607, 841
160608, 652
160609, 440
160610, 676
160611, 18
160612, 468
160613, 827
160614, 616
160615, 699
160616, 675
160617, 371
160618, 473
160619, 824
160620, 113
160621, 462
160622, 574
160623, 965
160624, 389
160625, 881
160626, 248
160627, 19
160628, 625
160629, 413
160630, 922
160631, 971
160632, 857
160633, 989
160634, 818
160635, 305
160636, 564
160637, 213
160638, 797
160639, 450
160640, 265
160641, 852
160642, 942
160643, 886
160644, 571
160645, 170
160646, 559
160647, 910
160648, 701
160649, 562
160650, 541
160651, 814
160652, 638
160653, 257
160654, 432
160655, 556
160656, 174
160657, 588
160658, 392
160659, 902
160660, 311
160661, 605
160662, 249
160663, 120
160664, 748
160665, 703
160666, 175
160667, 843
160668, 116
160669, 157
160670, 122
160671, 94
160672, 927
160673, 790
160674, 491
160675, 313
160676, 799
160677, 955
160678, 548
160679, 964
160680, 369
160681, 351
160682, 60
160683, 452
160684, 737
160685, 534
160686, 240
160687, 582
160688, 801
160689, 958
160690, 603
160691, 226
160692, 433
160693, 816
160694, 494
160695, 632
160696, 72
160697, 655
160698, 863
160699, 102
160700, 249
160701, 87
160702, 974
160703, 207
160704, 182
160705, 511
160706, 731
160707, 956
160708, 633
160709, 71
160710, 65
160711, 279
160712, 949
160713, 658
160714, 94
160715, 611
160716, 745
160717, 293
160718, 624
160719, 253
160720, 852
160721, 93
160722, 464
160723, 877
160724, 753
160725, 292
160726, 346
160727, 317
160728, 541
160729, 565
160730, 987
160731, 240
160732, 476
160733, 483
160734, 913
160735, 636
160736, 662
160737, 717
160738, 574
160739, 240
160740, 375
160741, 69
160742, 333
160743, 710
160744, 842
160745, 923
160746, 387
160747, 65
160748, 494
160749, 246
160750, 919
160751, 80
160752, 201
160753, 35
160754, 857
160755, 745
160756, 567
160757, 987
160758, 438
160759, 6
160760, 323
160761, 497
160762, 538
160763, 955
160764, 699
160765, 969
160766, 308
160767, 925
160768, 96
160769, 210
160770, 629
160771, 140
160772, 3
160773, 140
160774, 808
160775, 857
160776, 137
160777, 186
160778, 35
160779, 192
160780, 248
160781, 1
160782, 380
160783, 631
160784, 767
160785, 863
160786, 589
160787, 325
160788, 529
160789, 396
160790, 233
160791, 259
160792, 2
160793, 803
160794, 875
160795, 222
160796, 720
160797, 658
160798, 645
160799, 338
160800, 58
